p cnf 64 1871
c at least one value
1 2 3 4 5 6 7 0
8 9 10 11 12 13 14 0
15 16 17 18 19 20 21 0
22 23 24 25 26 27 28 0
29 30 31 32 33 34 0
35 36 37 38 39 40 0
41 42 43 44 45 46 0
47 48 49 50 51 52 0
53 54 55 56 57 58 0
59 60 61 62 63 64 0
c at most one value
-1 -2 0
-1 -3 0
-1 -4 0
-1 -5 0
-1 -6 0
-1 -7 0
-2 -3 0
-2 -4 0
-2 -5 0
-2 -6 0
-2 -7 0
-3 -4 0
-3 -5 0
-3 -6 0
-3 -7 0
-4 -5 0
-4 -6 0
-4 -7 0
-5 -6 0
-5 -7 0
-6 -7 0
-8 -9 0
-8 -10 0
-8 -11 0
-8 -12 0
-8 -13 0
-8 -14 0
-9 -10 0
-9 -11 0
-9 -12 0
-9 -13 0
-9 -14 0
-10 -11 0
-10 -12 0
-10 -13 0
-10 -14 0
-11 -12 0
-11 -13 0
-11 -14 0
-12 -13 0
-12 -14 0
-13 -14 0
-15 -16 0
-15 -17 0
-15 -18 0
-15 -19 0
-15 -20 0
-15 -21 0
-16 -17 0
-16 -18 0
-16 -19 0
-16 -20 0
-16 -21 0
-17 -18 0
-17 -19 0
-17 -20 0
-17 -21 0
-18 -19 0
-18 -20 0
-18 -21 0
-19 -20 0
-19 -21 0
-20 -21 0
-22 -23 0
-22 -24 0
-22 -25 0
-22 -26 0
-22 -27 0
-22 -28 0
-23 -24 0
-23 -25 0
-23 -26 0
-23 -27 0
-23 -28 0
-24 -25 0
-24 -26 0
-24 -27 0
-24 -28 0
-25 -26 0
-25 -27 0
-25 -28 0
-26 -27 0
-26 -28 0
-27 -28 0
-29 -30 0
-29 -31 0
-29 -32 0
-29 -33 0
-29 -34 0
-30 -31 0
-30 -32 0
-30 -33 0
-30 -34 0
-31 -32 0
-31 -33 0
-31 -34 0
-32 -33 0
-32 -34 0
-33 -34 0
-35 -36 0
-35 -37 0
-35 -38 0
-35 -39 0
-35 -40 0
-36 -37 0
-36 -38 0
-36 -39 0
-36 -40 0
-37 -38 0
-37 -39 0
-37 -40 0
-38 -39 0
-38 -40 0
-39 -40 0
-41 -42 0
-41 -43 0
-41 -44 0
-41 -45 0
-41 -46 0
-42 -43 0
-42 -44 0
-42 -45 0
-42 -46 0
-43 -44 0
-43 -45 0
-43 -46 0
-44 -45 0
-44 -46 0
-45 -46 0
-47 -48 0
-47 -49 0
-47 -50 0
-47 -51 0
-47 -52 0
-48 -49 0
-48 -50 0
-48 -51 0
-48 -52 0
-49 -50 0
-49 -51 0
-49 -52 0
-50 -51 0
-50 -52 0
-51 -52 0
-53 -54 0
-53 -55 0
-53 -56 0
-53 -57 0
-53 -58 0
-54 -55 0
-54 -56 0
-54 -57 0
-54 -58 0
-55 -56 0
-55 -57 0
-55 -58 0
-56 -57 0
-56 -58 0
-57 -58 0
-59 -60 0
-59 -61 0
-59 -62 0
-59 -63 0
-59 -64 0
-60 -61 0
-60 -62 0
-60 -63 0
-60 -64 0
-61 -62 0
-61 -63 0
-61 -64 0
-62 -63 0
-62 -64 0
-63 -64 0
c graceful clauses
-1 -8 -29 0
-1 -8 -30 0
-1 -8 -31 0
-1 -8 -32 0
-1 -8 -33 0
-1 -8 -34 0
-1 -9 -30 0
-1 -9 -31 0
-1 -9 -32 0
-1 -9 -33 0
-1 -9 -34 0
-1 -10 -29 0
-1 -10 -31 0
-1 -10 -32 0
-1 -10 -33 0
-1 -10 -34 0
-1 -11 -29 0
-1 -11 -30 0
-1 -11 -32 0
-1 -11 -33 0
-1 -11 -34 0
-1 -12 -29 0
-1 -12 -30 0
-1 -12 -31 0
-1 -12 -33 0
-1 -12 -34 0
-1 -13 -29 0
-1 -13 -30 0
-1 -13 -31 0
-1 -13 -32 0
-1 -13 -34 0
-1 -14 -29 0
-1 -14 -30 0
-1 -14 -31 0
-1 -14 -32 0
-1 -14 -33 0
-2 -8 -30 0
-2 -8 -31 0
-2 -8 -32 0
-2 -8 -33 0
-2 -8 -34 0
-2 -9 -29 0
-2 -9 -30 0
-2 -9 -31 0
-2 -9 -32 0
-2 -9 -33 0
-2 -9 -34 0
-2 -10 -30 0
-2 -10 -31 0
-2 -10 -32 0
-2 -10 -33 0
-2 -10 -34 0
-2 -11 -29 0
-2 -11 -31 0
-2 -11 -32 0
-2 -11 -33 0
-2 -11 -34 0
-2 -12 -29 0
-2 -12 -30 0
-2 -12 -32 0
-2 -12 -33 0
-2 -12 -34 0
-2 -13 -29 0
-2 -13 -30 0
-2 -13 -31 0
-2 -13 -33 0
-2 -13 -34 0
-2 -14 -29 0
-2 -14 -30 0
-2 -14 -31 0
-2 -14 -32 0
-2 -14 -34 0
-3 -8 -29 0
-3 -8 -31 0
-3 -8 -32 0
-3 -8 -33 0
-3 -8 -34 0
-3 -9 -30 0
-3 -9 -31 0
-3 -9 -32 0
-3 -9 -33 0
-3 -9 -34 0
-3 -10 -29 0
-3 -10 -30 0
-3 -10 -31 0
-3 -10 -32 0
-3 -10 -33 0
-3 -10 -34 0
-3 -11 -30 0
-3 -11 -31 0
-3 -11 -32 0
-3 -11 -33 0
-3 -11 -34 0
-3 -12 -29 0
-3 -12 -31 0
-3 -12 -32 0
-3 -12 -33 0
-3 -12 -34 0
-3 -13 -29 0
-3 -13 -30 0
-3 -13 -32 0
-3 -13 -33 0
-3 -13 -34 0
-3 -14 -29 0
-3 -14 -30 0
-3 -14 -31 0
-3 -14 -33 0
-3 -14 -34 0
-4 -8 -29 0
-4 -8 -30 0
-4 -8 -32 0
-4 -8 -33 0
-4 -8 -34 0
-4 -9 -29 0
-4 -9 -31 0
-4 -9 -32 0
-4 -9 -33 0
-4 -9 -34 0
-4 -10 -30 0
-4 -10 -31 0
-4 -10 -32 0
-4 -10 -33 0
-4 -10 -34 0
-4 -11 -29 0
-4 -11 -30 0
-4 -11 -31 0
-4 -11 -32 0
-4 -11 -33 0
-4 -11 -34 0
-4 -12 -30 0
-4 -12 -31 0
-4 -12 -32 0
-4 -12 -33 0
-4 -12 -34 0
-4 -13 -29 0
-4 -13 -31 0
-4 -13 -32 0
-4 -13 -33 0
-4 -13 -34 0
-4 -14 -29 0
-4 -14 -30 0
-4 -14 -32 0
-4 -14 -33 0
-4 -14 -34 0
-5 -8 -29 0
-5 -8 -30 0
-5 -8 -31 0
-5 -8 -33 0
-5 -8 -34 0
-5 -9 -29 0
-5 -9 -30 0
-5 -9 -32 0
-5 -9 -33 0
-5 -9 -34 0
-5 -10 -29 0
-5 -10 -31 0
-5 -10 -32 0
-5 -10 -33 0
-5 -10 -34 0
-5 -11 -30 0
-5 -11 -31 0
-5 -11 -32 0
-5 -11 -33 0
-5 -11 -34 0
-5 -12 -29 0
-5 -12 -30 0
-5 -12 -31 0
-5 -12 -32 0
-5 -12 -33 0
-5 -12 -34 0
-5 -13 -30 0
-5 -13 -31 0
-5 -13 -32 0
-5 -13 -33 0
-5 -13 -34 0
-5 -14 -29 0
-5 -14 -31 0
-5 -14 -32 0
-5 -14 -33 0
-5 -14 -34 0
-6 -8 -29 0
-6 -8 -30 0
-6 -8 -31 0
-6 -8 -32 0
-6 -8 -34 0
-6 -9 -29 0
-6 -9 -30 0
-6 -9 -31 0
-6 -9 -33 0
-6 -9 -34 0
-6 -10 -29 0
-6 -10 -30 0
-6 -10 -32 0
-6 -10 -33 0
-6 -10 -34 0
-6 -11 -29 0
-6 -11 -31 0
-6 -11 -32 0
-6 -11 -33 0
-6 -11 -34 0
-6 -12 -30 0
-6 -12 -31 0
-6 -12 -32 0
-6 -12 -33 0
-6 -12 -34 0
-6 -13 -29 0
-6 -13 -30 0
-6 -13 -31 0
-6 -13 -32 0
-6 -13 -33 0
-6 -13 -34 0
-6 -14 -30 0
-6 -14 -31 0
-6 -14 -32 0
-6 -14 -33 0
-6 -14 -34 0
-7 -8 -29 0
-7 -8 -30 0
-7 -8 -31 0
-7 -8 -32 0
-7 -8 -33 0
-7 -9 -29 0
-7 -9 -30 0
-7 -9 -31 0
-7 -9 -32 0
-7 -9 -34 0
-7 -10 -29 0
-7 -10 -30 0
-7 -10 -31 0
-7 -10 -33 0
-7 -10 -34 0
-7 -11 -29 0
-7 -11 -30 0
-7 -11 -32 0
-7 -11 -33 0
-7 -11 -34 0
-7 -12 -29 0
-7 -12 -31 0
-7 -12 -32 0
-7 -12 -33 0
-7 -12 -34 0
-7 -13 -30 0
-7 -13 -31 0
-7 -13 -32 0
-7 -13 -33 0
-7 -13 -34 0
-7 -14 -29 0
-7 -14 -30 0
-7 -14 -31 0
-7 -14 -32 0
-7 -14 -33 0
-7 -14 -34 0
-1 -15 -35 0
-1 -15 -36 0
-1 -15 -37 0
-1 -15 -38 0
-1 -15 -39 0
-1 -15 -40 0
-1 -16 -36 0
-1 -16 -37 0
-1 -16 -38 0
-1 -16 -39 0
-1 -16 -40 0
-1 -17 -35 0
-1 -17 -37 0
-1 -17 -38 0
-1 -17 -39 0
-1 -17 -40 0
-1 -18 -35 0
-1 -18 -36 0
-1 -18 -38 0
-1 -18 -39 0
-1 -18 -40 0
-1 -19 -35 0
-1 -19 -36 0
-1 -19 -37 0
-1 -19 -39 0
-1 -19 -40 0
-1 -20 -35 0
-1 -20 -36 0
-1 -20 -37 0
-1 -20 -38 0
-1 -20 -40 0
-1 -21 -35 0
-1 -21 -36 0
-1 -21 -37 0
-1 -21 -38 0
-1 -21 -39 0
-2 -15 -36 0
-2 -15 -37 0
-2 -15 -38 0
-2 -15 -39 0
-2 -15 -40 0
-2 -16 -35 0
-2 -16 -36 0
-2 -16 -37 0
-2 -16 -38 0
-2 -16 -39 0
-2 -16 -40 0
-2 -17 -36 0
-2 -17 -37 0
-2 -17 -38 0
-2 -17 -39 0
-2 -17 -40 0
-2 -18 -35 0
-2 -18 -37 0
-2 -18 -38 0
-2 -18 -39 0
-2 -18 -40 0
-2 -19 -35 0
-2 -19 -36 0
-2 -19 -38 0
-2 -19 -39 0
-2 -19 -40 0
-2 -20 -35 0
-2 -20 -36 0
-2 -20 -37 0
-2 -20 -39 0
-2 -20 -40 0
-2 -21 -35 0
-2 -21 -36 0
-2 -21 -37 0
-2 -21 -38 0
-2 -21 -40 0
-3 -15 -35 0
-3 -15 -37 0
-3 -15 -38 0
-3 -15 -39 0
-3 -15 -40 0
-3 -16 -36 0
-3 -16 -37 0
-3 -16 -38 0
-3 -16 -39 0
-3 -16 -40 0
-3 -17 -35 0
-3 -17 -36 0
-3 -17 -37 0
-3 -17 -38 0
-3 -17 -39 0
-3 -17 -40 0
-3 -18 -36 0
-3 -18 -37 0
-3 -18 -38 0
-3 -18 -39 0
-3 -18 -40 0
-3 -19 -35 0
-3 -19 -37 0
-3 -19 -38 0
-3 -19 -39 0
-3 -19 -40 0
-3 -20 -35 0
-3 -20 -36 0
-3 -20 -38 0
-3 -20 -39 0
-3 -20 -40 0
-3 -21 -35 0
-3 -21 -36 0
-3 -21 -37 0
-3 -21 -39 0
-3 -21 -40 0
-4 -15 -35 0
-4 -15 -36 0
-4 -15 -38 0
-4 -15 -39 0
-4 -15 -40 0
-4 -16 -35 0
-4 -16 -37 0
-4 -16 -38 0
-4 -16 -39 0
-4 -16 -40 0
-4 -17 -36 0
-4 -17 -37 0
-4 -17 -38 0
-4 -17 -39 0
-4 -17 -40 0
-4 -18 -35 0
-4 -18 -36 0
-4 -18 -37 0
-4 -18 -38 0
-4 -18 -39 0
-4 -18 -40 0
-4 -19 -36 0
-4 -19 -37 0
-4 -19 -38 0
-4 -19 -39 0
-4 -19 -40 0
-4 -20 -35 0
-4 -20 -37 0
-4 -20 -38 0
-4 -20 -39 0
-4 -20 -40 0
-4 -21 -35 0
-4 -21 -36 0
-4 -21 -38 0
-4 -21 -39 0
-4 -21 -40 0
-5 -15 -35 0
-5 -15 -36 0
-5 -15 -37 0
-5 -15 -39 0
-5 -15 -40 0
-5 -16 -35 0
-5 -16 -36 0
-5 -16 -38 0
-5 -16 -39 0
-5 -16 -40 0
-5 -17 -35 0
-5 -17 -37 0
-5 -17 -38 0
-5 -17 -39 0
-5 -17 -40 0
-5 -18 -36 0
-5 -18 -37 0
-5 -18 -38 0
-5 -18 -39 0
-5 -18 -40 0
-5 -19 -35 0
-5 -19 -36 0
-5 -19 -37 0
-5 -19 -38 0
-5 -19 -39 0
-5 -19 -40 0
-5 -20 -36 0
-5 -20 -37 0
-5 -20 -38 0
-5 -20 -39 0
-5 -20 -40 0
-5 -21 -35 0
-5 -21 -37 0
-5 -21 -38 0
-5 -21 -39 0
-5 -21 -40 0
-6 -15 -35 0
-6 -15 -36 0
-6 -15 -37 0
-6 -15 -38 0
-6 -15 -40 0
-6 -16 -35 0
-6 -16 -36 0
-6 -16 -37 0
-6 -16 -39 0
-6 -16 -40 0
-6 -17 -35 0
-6 -17 -36 0
-6 -17 -38 0
-6 -17 -39 0
-6 -17 -40 0
-6 -18 -35 0
-6 -18 -37 0
-6 -18 -38 0
-6 -18 -39 0
-6 -18 -40 0
-6 -19 -36 0
-6 -19 -37 0
-6 -19 -38 0
-6 -19 -39 0
-6 -19 -40 0
-6 -20 -35 0
-6 -20 -36 0
-6 -20 -37 0
-6 -20 -38 0
-6 -20 -39 0
-6 -20 -40 0
-6 -21 -36 0
-6 -21 -37 0
-6 -21 -38 0
-6 -21 -39 0
-6 -21 -40 0
-7 -15 -35 0
-7 -15 -36 0
-7 -15 -37 0
-7 -15 -38 0
-7 -15 -39 0
-7 -16 -35 0
-7 -16 -36 0
-7 -16 -37 0
-7 -16 -38 0
-7 -16 -40 0
-7 -17 -35 0
-7 -17 -36 0
-7 -17 -37 0
-7 -17 -39 0
-7 -17 -40 0
-7 -18 -35 0
-7 -18 -36 0
-7 -18 -38 0
-7 -18 -39 0
-7 -18 -40 0
-7 -19 -35 0
-7 -19 -37 0
-7 -19 -38 0
-7 -19 -39 0
-7 -19 -40 0
-7 -20 -36 0
-7 -20 -37 0
-7 -20 -38 0
-7 -20 -39 0
-7 -20 -40 0
-7 -21 -35 0
-7 -21 -36 0
-7 -21 -37 0
-7 -21 -38 0
-7 -21 -39 0
-7 -21 -40 0
-1 -22 -41 0
-1 -22 -42 0
-1 -22 -43 0
-1 -22 -44 0
-1 -22 -45 0
-1 -22 -46 0
-1 -23 -42 0
-1 -23 -43 0
-1 -23 -44 0
-1 -23 -45 0
-1 -23 -46 0
-1 -24 -41 0
-1 -24 -43 0
-1 -24 -44 0
-1 -24 -45 0
-1 -24 -46 0
-1 -25 -41 0
-1 -25 -42 0
-1 -25 -44 0
-1 -25 -45 0
-1 -25 -46 0
-1 -26 -41 0
-1 -26 -42 0
-1 -26 -43 0
-1 -26 -45 0
-1 -26 -46 0
-1 -27 -41 0
-1 -27 -42 0
-1 -27 -43 0
-1 -27 -44 0
-1 -27 -46 0
-1 -28 -41 0
-1 -28 -42 0
-1 -28 -43 0
-1 -28 -44 0
-1 -28 -45 0
-2 -22 -42 0
-2 -22 -43 0
-2 -22 -44 0
-2 -22 -45 0
-2 -22 -46 0
-2 -23 -41 0
-2 -23 -42 0
-2 -23 -43 0
-2 -23 -44 0
-2 -23 -45 0
-2 -23 -46 0
-2 -24 -42 0
-2 -24 -43 0
-2 -24 -44 0
-2 -24 -45 0
-2 -24 -46 0
-2 -25 -41 0
-2 -25 -43 0
-2 -25 -44 0
-2 -25 -45 0
-2 -25 -46 0
-2 -26 -41 0
-2 -26 -42 0
-2 -26 -44 0
-2 -26 -45 0
-2 -26 -46 0
-2 -27 -41 0
-2 -27 -42 0
-2 -27 -43 0
-2 -27 -45 0
-2 -27 -46 0
-2 -28 -41 0
-2 -28 -42 0
-2 -28 -43 0
-2 -28 -44 0
-2 -28 -46 0
-3 -22 -41 0
-3 -22 -43 0
-3 -22 -44 0
-3 -22 -45 0
-3 -22 -46 0
-3 -23 -42 0
-3 -23 -43 0
-3 -23 -44 0
-3 -23 -45 0
-3 -23 -46 0
-3 -24 -41 0
-3 -24 -42 0
-3 -24 -43 0
-3 -24 -44 0
-3 -24 -45 0
-3 -24 -46 0
-3 -25 -42 0
-3 -25 -43 0
-3 -25 -44 0
-3 -25 -45 0
-3 -25 -46 0
-3 -26 -41 0
-3 -26 -43 0
-3 -26 -44 0
-3 -26 -45 0
-3 -26 -46 0
-3 -27 -41 0
-3 -27 -42 0
-3 -27 -44 0
-3 -27 -45 0
-3 -27 -46 0
-3 -28 -41 0
-3 -28 -42 0
-3 -28 -43 0
-3 -28 -45 0
-3 -28 -46 0
-4 -22 -41 0
-4 -22 -42 0
-4 -22 -44 0
-4 -22 -45 0
-4 -22 -46 0
-4 -23 -41 0
-4 -23 -43 0
-4 -23 -44 0
-4 -23 -45 0
-4 -23 -46 0
-4 -24 -42 0
-4 -24 -43 0
-4 -24 -44 0
-4 -24 -45 0
-4 -24 -46 0
-4 -25 -41 0
-4 -25 -42 0
-4 -25 -43 0
-4 -25 -44 0
-4 -25 -45 0
-4 -25 -46 0
-4 -26 -42 0
-4 -26 -43 0
-4 -26 -44 0
-4 -26 -45 0
-4 -26 -46 0
-4 -27 -41 0
-4 -27 -43 0
-4 -27 -44 0
-4 -27 -45 0
-4 -27 -46 0
-4 -28 -41 0
-4 -28 -42 0
-4 -28 -44 0
-4 -28 -45 0
-4 -28 -46 0
-5 -22 -41 0
-5 -22 -42 0
-5 -22 -43 0
-5 -22 -45 0
-5 -22 -46 0
-5 -23 -41 0
-5 -23 -42 0
-5 -23 -44 0
-5 -23 -45 0
-5 -23 -46 0
-5 -24 -41 0
-5 -24 -43 0
-5 -24 -44 0
-5 -24 -45 0
-5 -24 -46 0
-5 -25 -42 0
-5 -25 -43 0
-5 -25 -44 0
-5 -25 -45 0
-5 -25 -46 0
-5 -26 -41 0
-5 -26 -42 0
-5 -26 -43 0
-5 -26 -44 0
-5 -26 -45 0
-5 -26 -46 0
-5 -27 -42 0
-5 -27 -43 0
-5 -27 -44 0
-5 -27 -45 0
-5 -27 -46 0
-5 -28 -41 0
-5 -28 -43 0
-5 -28 -44 0
-5 -28 -45 0
-5 -28 -46 0
-6 -22 -41 0
-6 -22 -42 0
-6 -22 -43 0
-6 -22 -44 0
-6 -22 -46 0
-6 -23 -41 0
-6 -23 -42 0
-6 -23 -43 0
-6 -23 -45 0
-6 -23 -46 0
-6 -24 -41 0
-6 -24 -42 0
-6 -24 -44 0
-6 -24 -45 0
-6 -24 -46 0
-6 -25 -41 0
-6 -25 -43 0
-6 -25 -44 0
-6 -25 -45 0
-6 -25 -46 0
-6 -26 -42 0
-6 -26 -43 0
-6 -26 -44 0
-6 -26 -45 0
-6 -26 -46 0
-6 -27 -41 0
-6 -27 -42 0
-6 -27 -43 0
-6 -27 -44 0
-6 -27 -45 0
-6 -27 -46 0
-6 -28 -42 0
-6 -28 -43 0
-6 -28 -44 0
-6 -28 -45 0
-6 -28 -46 0
-7 -22 -41 0
-7 -22 -42 0
-7 -22 -43 0
-7 -22 -44 0
-7 -22 -45 0
-7 -23 -41 0
-7 -23 -42 0
-7 -23 -43 0
-7 -23 -44 0
-7 -23 -46 0
-7 -24 -41 0
-7 -24 -42 0
-7 -24 -43 0
-7 -24 -45 0
-7 -24 -46 0
-7 -25 -41 0
-7 -25 -42 0
-7 -25 -44 0
-7 -25 -45 0
-7 -25 -46 0
-7 -26 -41 0
-7 -26 -43 0
-7 -26 -44 0
-7 -26 -45 0
-7 -26 -46 0
-7 -27 -42 0
-7 -27 -43 0
-7 -27 -44 0
-7 -27 -45 0
-7 -27 -46 0
-7 -28 -41 0
-7 -28 -42 0
-7 -28 -43 0
-7 -28 -44 0
-7 -28 -45 0
-7 -28 -46 0
-8 -15 -47 0
-8 -15 -48 0
-8 -15 -49 0
-8 -15 -50 0
-8 -15 -51 0
-8 -15 -52 0
-8 -16 -48 0
-8 -16 -49 0
-8 -16 -50 0
-8 -16 -51 0
-8 -16 -52 0
-8 -17 -47 0
-8 -17 -49 0
-8 -17 -50 0
-8 -17 -51 0
-8 -17 -52 0
-8 -18 -47 0
-8 -18 -48 0
-8 -18 -50 0
-8 -18 -51 0
-8 -18 -52 0
-8 -19 -47 0
-8 -19 -48 0
-8 -19 -49 0
-8 -19 -51 0
-8 -19 -52 0
-8 -20 -47 0
-8 -20 -48 0
-8 -20 -49 0
-8 -20 -50 0
-8 -20 -52 0
-8 -21 -47 0
-8 -21 -48 0
-8 -21 -49 0
-8 -21 -50 0
-8 -21 -51 0
-9 -15 -48 0
-9 -15 -49 0
-9 -15 -50 0
-9 -15 -51 0
-9 -15 -52 0
-9 -16 -47 0
-9 -16 -48 0
-9 -16 -49 0
-9 -16 -50 0
-9 -16 -51 0
-9 -16 -52 0
-9 -17 -48 0
-9 -17 -49 0
-9 -17 -50 0
-9 -17 -51 0
-9 -17 -52 0
-9 -18 -47 0
-9 -18 -49 0
-9 -18 -50 0
-9 -18 -51 0
-9 -18 -52 0
-9 -19 -47 0
-9 -19 -48 0
-9 -19 -50 0
-9 -19 -51 0
-9 -19 -52 0
-9 -20 -47 0
-9 -20 -48 0
-9 -20 -49 0
-9 -20 -51 0
-9 -20 -52 0
-9 -21 -47 0
-9 -21 -48 0
-9 -21 -49 0
-9 -21 -50 0
-9 -21 -52 0
-10 -15 -47 0
-10 -15 -49 0
-10 -15 -50 0
-10 -15 -51 0
-10 -15 -52 0
-10 -16 -48 0
-10 -16 -49 0
-10 -16 -50 0
-10 -16 -51 0
-10 -16 -52 0
-10 -17 -47 0
-10 -17 -48 0
-10 -17 -49 0
-10 -17 -50 0
-10 -17 -51 0
-10 -17 -52 0
-10 -18 -48 0
-10 -18 -49 0
-10 -18 -50 0
-10 -18 -51 0
-10 -18 -52 0
-10 -19 -47 0
-10 -19 -49 0
-10 -19 -50 0
-10 -19 -51 0
-10 -19 -52 0
-10 -20 -47 0
-10 -20 -48 0
-10 -20 -50 0
-10 -20 -51 0
-10 -20 -52 0
-10 -21 -47 0
-10 -21 -48 0
-10 -21 -49 0
-10 -21 -51 0
-10 -21 -52 0
-11 -15 -47 0
-11 -15 -48 0
-11 -15 -50 0
-11 -15 -51 0
-11 -15 -52 0
-11 -16 -47 0
-11 -16 -49 0
-11 -16 -50 0
-11 -16 -51 0
-11 -16 -52 0
-11 -17 -48 0
-11 -17 -49 0
-11 -17 -50 0
-11 -17 -51 0
-11 -17 -52 0
-11 -18 -47 0
-11 -18 -48 0
-11 -18 -49 0
-11 -18 -50 0
-11 -18 -51 0
-11 -18 -52 0
-11 -19 -48 0
-11 -19 -49 0
-11 -19 -50 0
-11 -19 -51 0
-11 -19 -52 0
-11 -20 -47 0
-11 -20 -49 0
-11 -20 -50 0
-11 -20 -51 0
-11 -20 -52 0
-11 -21 -47 0
-11 -21 -48 0
-11 -21 -50 0
-11 -21 -51 0
-11 -21 -52 0
-12 -15 -47 0
-12 -15 -48 0
-12 -15 -49 0
-12 -15 -51 0
-12 -15 -52 0
-12 -16 -47 0
-12 -16 -48 0
-12 -16 -50 0
-12 -16 -51 0
-12 -16 -52 0
-12 -17 -47 0
-12 -17 -49 0
-12 -17 -50 0
-12 -17 -51 0
-12 -17 -52 0
-12 -18 -48 0
-12 -18 -49 0
-12 -18 -50 0
-12 -18 -51 0
-12 -18 -52 0
-12 -19 -47 0
-12 -19 -48 0
-12 -19 -49 0
-12 -19 -50 0
-12 -19 -51 0
-12 -19 -52 0
-12 -20 -48 0
-12 -20 -49 0
-12 -20 -50 0
-12 -20 -51 0
-12 -20 -52 0
-12 -21 -47 0
-12 -21 -49 0
-12 -21 -50 0
-12 -21 -51 0
-12 -21 -52 0
-13 -15 -47 0
-13 -15 -48 0
-13 -15 -49 0
-13 -15 -50 0
-13 -15 -52 0
-13 -16 -47 0
-13 -16 -48 0
-13 -16 -49 0
-13 -16 -51 0
-13 -16 -52 0
-13 -17 -47 0
-13 -17 -48 0
-13 -17 -50 0
-13 -17 -51 0
-13 -17 -52 0
-13 -18 -47 0
-13 -18 -49 0
-13 -18 -50 0
-13 -18 -51 0
-13 -18 -52 0
-13 -19 -48 0
-13 -19 -49 0
-13 -19 -50 0
-13 -19 -51 0
-13 -19 -52 0
-13 -20 -47 0
-13 -20 -48 0
-13 -20 -49 0
-13 -20 -50 0
-13 -20 -51 0
-13 -20 -52 0
-13 -21 -48 0
-13 -21 -49 0
-13 -21 -50 0
-13 -21 -51 0
-13 -21 -52 0
-14 -15 -47 0
-14 -15 -48 0
-14 -15 -49 0
-14 -15 -50 0
-14 -15 -51 0
-14 -16 -47 0
-14 -16 -48 0
-14 -16 -49 0
-14 -16 -50 0
-14 -16 -52 0
-14 -17 -47 0
-14 -17 -48 0
-14 -17 -49 0
-14 -17 -51 0
-14 -17 -52 0
-14 -18 -47 0
-14 -18 -48 0
-14 -18 -50 0
-14 -18 -51 0
-14 -18 -52 0
-14 -19 -47 0
-14 -19 -49 0
-14 -19 -50 0
-14 -19 -51 0
-14 -19 -52 0
-14 -20 -48 0
-14 -20 -49 0
-14 -20 -50 0
-14 -20 -51 0
-14 -20 -52 0
-14 -21 -47 0
-14 -21 -48 0
-14 -21 -49 0
-14 -21 -50 0
-14 -21 -51 0
-14 -21 -52 0
-8 -22 -53 0
-8 -22 -54 0
-8 -22 -55 0
-8 -22 -56 0
-8 -22 -57 0
-8 -22 -58 0
-8 -23 -54 0
-8 -23 -55 0
-8 -23 -56 0
-8 -23 -57 0
-8 -23 -58 0
-8 -24 -53 0
-8 -24 -55 0
-8 -24 -56 0
-8 -24 -57 0
-8 -24 -58 0
-8 -25 -53 0
-8 -25 -54 0
-8 -25 -56 0
-8 -25 -57 0
-8 -25 -58 0
-8 -26 -53 0
-8 -26 -54 0
-8 -26 -55 0
-8 -26 -57 0
-8 -26 -58 0
-8 -27 -53 0
-8 -27 -54 0
-8 -27 -55 0
-8 -27 -56 0
-8 -27 -58 0
-8 -28 -53 0
-8 -28 -54 0
-8 -28 -55 0
-8 -28 -56 0
-8 -28 -57 0
-9 -22 -54 0
-9 -22 -55 0
-9 -22 -56 0
-9 -22 -57 0
-9 -22 -58 0
-9 -23 -53 0
-9 -23 -54 0
-9 -23 -55 0
-9 -23 -56 0
-9 -23 -57 0
-9 -23 -58 0
-9 -24 -54 0
-9 -24 -55 0
-9 -24 -56 0
-9 -24 -57 0
-9 -24 -58 0
-9 -25 -53 0
-9 -25 -55 0
-9 -25 -56 0
-9 -25 -57 0
-9 -25 -58 0
-9 -26 -53 0
-9 -26 -54 0
-9 -26 -56 0
-9 -26 -57 0
-9 -26 -58 0
-9 -27 -53 0
-9 -27 -54 0
-9 -27 -55 0
-9 -27 -57 0
-9 -27 -58 0
-9 -28 -53 0
-9 -28 -54 0
-9 -28 -55 0
-9 -28 -56 0
-9 -28 -58 0
-10 -22 -53 0
-10 -22 -55 0
-10 -22 -56 0
-10 -22 -57 0
-10 -22 -58 0
-10 -23 -54 0
-10 -23 -55 0
-10 -23 -56 0
-10 -23 -57 0
-10 -23 -58 0
-10 -24 -53 0
-10 -24 -54 0
-10 -24 -55 0
-10 -24 -56 0
-10 -24 -57 0
-10 -24 -58 0
-10 -25 -54 0
-10 -25 -55 0
-10 -25 -56 0
-10 -25 -57 0
-10 -25 -58 0
-10 -26 -53 0
-10 -26 -55 0
-10 -26 -56 0
-10 -26 -57 0
-10 -26 -58 0
-10 -27 -53 0
-10 -27 -54 0
-10 -27 -56 0
-10 -27 -57 0
-10 -27 -58 0
-10 -28 -53 0
-10 -28 -54 0
-10 -28 -55 0
-10 -28 -57 0
-10 -28 -58 0
-11 -22 -53 0
-11 -22 -54 0
-11 -22 -56 0
-11 -22 -57 0
-11 -22 -58 0
-11 -23 -53 0
-11 -23 -55 0
-11 -23 -56 0
-11 -23 -57 0
-11 -23 -58 0
-11 -24 -54 0
-11 -24 -55 0
-11 -24 -56 0
-11 -24 -57 0
-11 -24 -58 0
-11 -25 -53 0
-11 -25 -54 0
-11 -25 -55 0
-11 -25 -56 0
-11 -25 -57 0
-11 -25 -58 0
-11 -26 -54 0
-11 -26 -55 0
-11 -26 -56 0
-11 -26 -57 0
-11 -26 -58 0
-11 -27 -53 0
-11 -27 -55 0
-11 -27 -56 0
-11 -27 -57 0
-11 -27 -58 0
-11 -28 -53 0
-11 -28 -54 0
-11 -28 -56 0
-11 -28 -57 0
-11 -28 -58 0
-12 -22 -53 0
-12 -22 -54 0
-12 -22 -55 0
-12 -22 -57 0
-12 -22 -58 0
-12 -23 -53 0
-12 -23 -54 0
-12 -23 -56 0
-12 -23 -57 0
-12 -23 -58 0
-12 -24 -53 0
-12 -24 -55 0
-12 -24 -56 0
-12 -24 -57 0
-12 -24 -58 0
-12 -25 -54 0
-12 -25 -55 0
-12 -25 -56 0
-12 -25 -57 0
-12 -25 -58 0
-12 -26 -53 0
-12 -26 -54 0
-12 -26 -55 0
-12 -26 -56 0
-12 -26 -57 0
-12 -26 -58 0
-12 -27 -54 0
-12 -27 -55 0
-12 -27 -56 0
-12 -27 -57 0
-12 -27 -58 0
-12 -28 -53 0
-12 -28 -55 0
-12 -28 -56 0
-12 -28 -57 0
-12 -28 -58 0
-13 -22 -53 0
-13 -22 -54 0
-13 -22 -55 0
-13 -22 -56 0
-13 -22 -58 0
-13 -23 -53 0
-13 -23 -54 0
-13 -23 -55 0
-13 -23 -57 0
-13 -23 -58 0
-13 -24 -53 0
-13 -24 -54 0
-13 -24 -56 0
-13 -24 -57 0
-13 -24 -58 0
-13 -25 -53 0
-13 -25 -55 0
-13 -25 -56 0
-13 -25 -57 0
-13 -25 -58 0
-13 -26 -54 0
-13 -26 -55 0
-13 -26 -56 0
-13 -26 -57 0
-13 -26 -58 0
-13 -27 -53 0
-13 -27 -54 0
-13 -27 -55 0
-13 -27 -56 0
-13 -27 -57 0
-13 -27 -58 0
-13 -28 -54 0
-13 -28 -55 0
-13 -28 -56 0
-13 -28 -57 0
-13 -28 -58 0
-14 -22 -53 0
-14 -22 -54 0
-14 -22 -55 0
-14 -22 -56 0
-14 -22 -57 0
-14 -23 -53 0
-14 -23 -54 0
-14 -23 -55 0
-14 -23 -56 0
-14 -23 -58 0
-14 -24 -53 0
-14 -24 -54 0
-14 -24 -55 0
-14 -24 -57 0
-14 -24 -58 0
-14 -25 -53 0
-14 -25 -54 0
-14 -25 -56 0
-14 -25 -57 0
-14 -25 -58 0
-14 -26 -53 0
-14 -26 -55 0
-14 -26 -56 0
-14 -26 -57 0
-14 -26 -58 0
-14 -27 -54 0
-14 -27 -55 0
-14 -27 -56 0
-14 -27 -57 0
-14 -27 -58 0
-14 -28 -53 0
-14 -28 -54 0
-14 -28 -55 0
-14 -28 -56 0
-14 -28 -57 0
-14 -28 -58 0
-15 -22 -59 0
-15 -22 -60 0
-15 -22 -61 0
-15 -22 -62 0
-15 -22 -63 0
-15 -22 -64 0
-15 -23 -60 0
-15 -23 -61 0
-15 -23 -62 0
-15 -23 -63 0
-15 -23 -64 0
-15 -24 -59 0
-15 -24 -61 0
-15 -24 -62 0
-15 -24 -63 0
-15 -24 -64 0
-15 -25 -59 0
-15 -25 -60 0
-15 -25 -62 0
-15 -25 -63 0
-15 -25 -64 0
-15 -26 -59 0
-15 -26 -60 0
-15 -26 -61 0
-15 -26 -63 0
-15 -26 -64 0
-15 -27 -59 0
-15 -27 -60 0
-15 -27 -61 0
-15 -27 -62 0
-15 -27 -64 0
-15 -28 -59 0
-15 -28 -60 0
-15 -28 -61 0
-15 -28 -62 0
-15 -28 -63 0
-16 -22 -60 0
-16 -22 -61 0
-16 -22 -62 0
-16 -22 -63 0
-16 -22 -64 0
-16 -23 -59 0
-16 -23 -60 0
-16 -23 -61 0
-16 -23 -62 0
-16 -23 -63 0
-16 -23 -64 0
-16 -24 -60 0
-16 -24 -61 0
-16 -24 -62 0
-16 -24 -63 0
-16 -24 -64 0
-16 -25 -59 0
-16 -25 -61 0
-16 -25 -62 0
-16 -25 -63 0
-16 -25 -64 0
-16 -26 -59 0
-16 -26 -60 0
-16 -26 -62 0
-16 -26 -63 0
-16 -26 -64 0
-16 -27 -59 0
-16 -27 -60 0
-16 -27 -61 0
-16 -27 -63 0
-16 -27 -64 0
-16 -28 -59 0
-16 -28 -60 0
-16 -28 -61 0
-16 -28 -62 0
-16 -28 -64 0
-17 -22 -59 0
-17 -22 -61 0
-17 -22 -62 0
-17 -22 -63 0
-17 -22 -64 0
-17 -23 -60 0
-17 -23 -61 0
-17 -23 -62 0
-17 -23 -63 0
-17 -23 -64 0
-17 -24 -59 0
-17 -24 -60 0
-17 -24 -61 0
-17 -24 -62 0
-17 -24 -63 0
-17 -24 -64 0
-17 -25 -60 0
-17 -25 -61 0
-17 -25 -62 0
-17 -25 -63 0
-17 -25 -64 0
-17 -26 -59 0
-17 -26 -61 0
-17 -26 -62 0
-17 -26 -63 0
-17 -26 -64 0
-17 -27 -59 0
-17 -27 -60 0
-17 -27 -62 0
-17 -27 -63 0
-17 -27 -64 0
-17 -28 -59 0
-17 -28 -60 0
-17 -28 -61 0
-17 -28 -63 0
-17 -28 -64 0
-18 -22 -59 0
-18 -22 -60 0
-18 -22 -62 0
-18 -22 -63 0
-18 -22 -64 0
-18 -23 -59 0
-18 -23 -61 0
-18 -23 -62 0
-18 -23 -63 0
-18 -23 -64 0
-18 -24 -60 0
-18 -24 -61 0
-18 -24 -62 0
-18 -24 -63 0
-18 -24 -64 0
-18 -25 -59 0
-18 -25 -60 0
-18 -25 -61 0
-18 -25 -62 0
-18 -25 -63 0
-18 -25 -64 0
-18 -26 -60 0
-18 -26 -61 0
-18 -26 -62 0
-18 -26 -63 0
-18 -26 -64 0
-18 -27 -59 0
-18 -27 -61 0
-18 -27 -62 0
-18 -27 -63 0
-18 -27 -64 0
-18 -28 -59 0
-18 -28 -60 0
-18 -28 -62 0
-18 -28 -63 0
-18 -28 -64 0
-19 -22 -59 0
-19 -22 -60 0
-19 -22 -61 0
-19 -22 -63 0
-19 -22 -64 0
-19 -23 -59 0
-19 -23 -60 0
-19 -23 -62 0
-19 -23 -63 0
-19 -23 -64 0
-19 -24 -59 0
-19 -24 -61 0
-19 -24 -62 0
-19 -24 -63 0
-19 -24 -64 0
-19 -25 -60 0
-19 -25 -61 0
-19 -25 -62 0
-19 -25 -63 0
-19 -25 -64 0
-19 -26 -59 0
-19 -26 -60 0
-19 -26 -61 0
-19 -26 -62 0
-19 -26 -63 0
-19 -26 -64 0
-19 -27 -60 0
-19 -27 -61 0
-19 -27 -62 0
-19 -27 -63 0
-19 -27 -64 0
-19 -28 -59 0
-19 -28 -61 0
-19 -28 -62 0
-19 -28 -63 0
-19 -28 -64 0
-20 -22 -59 0
-20 -22 -60 0
-20 -22 -61 0
-20 -22 -62 0
-20 -22 -64 0
-20 -23 -59 0
-20 -23 -60 0
-20 -23 -61 0
-20 -23 -63 0
-20 -23 -64 0
-20 -24 -59 0
-20 -24 -60 0
-20 -24 -62 0
-20 -24 -63 0
-20 -24 -64 0
-20 -25 -59 0
-20 -25 -61 0
-20 -25 -62 0
-20 -25 -63 0
-20 -25 -64 0
-20 -26 -60 0
-20 -26 -61 0
-20 -26 -62 0
-20 -26 -63 0
-20 -26 -64 0
-20 -27 -59 0
-20 -27 -60 0
-20 -27 -61 0
-20 -27 -62 0
-20 -27 -63 0
-20 -27 -64 0
-20 -28 -60 0
-20 -28 -61 0
-20 -28 -62 0
-20 -28 -63 0
-20 -28 -64 0
-21 -22 -59 0
-21 -22 -60 0
-21 -22 -61 0
-21 -22 -62 0
-21 -22 -63 0
-21 -23 -59 0
-21 -23 -60 0
-21 -23 -61 0
-21 -23 -62 0
-21 -23 -64 0
-21 -24 -59 0
-21 -24 -60 0
-21 -24 -61 0
-21 -24 -63 0
-21 -24 -64 0
-21 -25 -59 0
-21 -25 -60 0
-21 -25 -62 0
-21 -25 -63 0
-21 -25 -64 0
-21 -26 -59 0
-21 -26 -61 0
-21 -26 -62 0
-21 -26 -63 0
-21 -26 -64 0
-21 -27 -60 0
-21 -27 -61 0
-21 -27 -62 0
-21 -27 -63 0
-21 -27 -64 0
-21 -28 -59 0
-21 -28 -60 0
-21 -28 -61 0
-21 -28 -62 0
-21 -28 -63 0
-21 -28 -64 0
c create alldiff
-1 -8 0
-2 -9 0
-3 -10 0
-4 -11 0
-5 -12 0
-6 -13 0
-7 -14 0
-1 -15 0
-2 -16 0
-3 -17 0
-4 -18 0
-5 -19 0
-6 -20 0
-7 -21 0
-1 -22 0
-2 -23 0
-3 -24 0
-4 -25 0
-5 -26 0
-6 -27 0
-7 -28 0
-8 -15 0
-9 -16 0
-10 -17 0
-11 -18 0
-12 -19 0
-13 -20 0
-14 -21 0
-8 -22 0
-9 -23 0
-10 -24 0
-11 -25 0
-12 -26 0
-13 -27 0
-14 -28 0
-15 -22 0
-16 -23 0
-17 -24 0
-18 -25 0
-19 -26 0
-20 -27 0
-21 -28 0
c create alldiff
-29 -35 0
-30 -36 0
-31 -37 0
-32 -38 0
-33 -39 0
-34 -40 0
-29 -41 0
-30 -42 0
-31 -43 0
-32 -44 0
-33 -45 0
-34 -46 0
-29 -47 0
-30 -48 0
-31 -49 0
-32 -50 0
-33 -51 0
-34 -52 0
-29 -53 0
-30 -54 0
-31 -55 0
-32 -56 0
-33 -57 0
-34 -58 0
-29 -59 0
-30 -60 0
-31 -61 0
-32 -62 0
-33 -63 0
-34 -64 0
-35 -41 0
-36 -42 0
-37 -43 0
-38 -44 0
-39 -45 0
-40 -46 0
-35 -47 0
-36 -48 0
-37 -49 0
-38 -50 0
-39 -51 0
-40 -52 0
-35 -53 0
-36 -54 0
-37 -55 0
-38 -56 0
-39 -57 0
-40 -58 0
-35 -59 0
-36 -60 0
-37 -61 0
-38 -62 0
-39 -63 0
-40 -64 0
-41 -47 0
-42 -48 0
-43 -49 0
-44 -50 0
-45 -51 0
-46 -52 0
-41 -53 0
-42 -54 0
-43 -55 0
-44 -56 0
-45 -57 0
-46 -58 0
-41 -59 0
-42 -60 0
-43 -61 0
-44 -62 0
-45 -63 0
-46 -64 0
-47 -53 0
-48 -54 0
-49 -55 0
-50 -56 0
-51 -57 0
-52 -58 0
-47 -59 0
-48 -60 0
-49 -61 0
-50 -62 0
-51 -63 0
-52 -64 0
-53 -59 0
-54 -60 0
-55 -61 0
-56 -62 0
-57 -63 0
-58 -64 0
c break symmetry[[8, 9, 10, 11, 12, 13, 14], [15, 16, 17, 18, 19, 20, 21], [22, 23, 24, 25, 26, 27, 28]]
-9 -15 0
-10 -15 0
-10 -16 0
-11 -15 0
-11 -16 0
-11 -17 0
-12 -15 0
-12 -16 0
-12 -17 0
-12 -18 0
-13 -15 0
-13 -16 0
-13 -17 0
-13 -18 0
-13 -19 0
-14 -15 0
-14 -16 0
-14 -17 0
-14 -18 0
-14 -19 0
-14 -20 0
-16 -22 0
-17 -22 0
-17 -23 0
-18 -22 0
-18 -23 0
-18 -24 0
-19 -22 0
-19 -23 0
-19 -24 0
-19 -25 0
-20 -22 0
-20 -23 0
-20 -24 0
-20 -25 0
-20 -26 0
-21 -22 0
-21 -23 0
-21 -24 0
-21 -25 0
-21 -26 0
-21 -27 0
1 0
